#************************************************************************************
#*                   Generated by cif2cell 2.0.0 2023-06-04 18:28                   *
#*  T. Bjorkman, Comp. Phys. Commun. 182, 1183-1186 (2011). Please cite generously. *
#*                                                                                  *
#*                              Data obtained from COD                              *
#*                                    None   ()                                     *
#*             Failed to get author information, No journal information             *
#************************************************************************************

&SYSTEM
  ibrav = 0
  A =    6.68000
  nat = 32
  ntyp = 4
/
CELL_PARAMETERS {alat}
  1.000000000000000   0.000000000000000   0.000000000000000 
  0.000000000000000   1.000000000000000   0.000000000000000 
  0.000000000000000   0.000000000000000   2.000000000000000 
ATOMIC_SPECIES
  Nb   92.90600  Nb_PSEUDO
  Zr   91.22400  Zr_PSEUDO
  Ta  180.94700  Ta_PSEUDO
  Hf  178.49000  Hf_PSEUDO
ATOMIC_POSITIONS {crystal}
Ta   0.250000000000000   0.250000000000000   0.625000000000000 
Ta   0.250000000000000   0.250000000000000   0.875000000000000 
Ta   0.500000000000000   0.000000000000000   0.000000000000000 
Ta   0.750000000000000   0.250000000000000   0.375000000000000 
Ta   0.750000000000000   0.250000000000000   0.625000000000000 
Ta   0.750000000000000   0.250000000000000   0.875000000000000 
Ta   0.750000000000000   0.750000000000000   0.125000000000000 
Ta   0.000000000000000   0.500000000000000   0.500000000000000 
Hf   0.250000000000000   0.750000000000000   0.375000000000000 
Hf   0.250000000000000   0.750000000000000   0.875000000000000 
Hf   0.500000000000000   0.500000000000000   0.750000000000000 
Hf   0.500000000000000   0.000000000000000   0.250000000000000 
Hf   0.500000000000000   0.000000000000000   0.750000000000000 
Hf   0.750000000000000   0.750000000000000   0.625000000000000 
Hf   0.000000000000000   0.500000000000000   0.000000000000000 
Hf   0.000000000000000   0.000000000000000   0.750000000000000 
Nb   0.250000000000000   0.250000000000000   0.375000000000000 
Nb   0.500000000000000   0.500000000000000   0.250000000000000 
Nb   0.500000000000000   0.500000000000000   0.500000000000000 
Nb   0.500000000000000   0.000000000000000   0.500000000000000 
Nb   0.750000000000000   0.750000000000000   0.375000000000000 
Nb   0.000000000000000   0.500000000000000   0.250000000000000 
Nb   0.000000000000000   0.000000000000000   0.250000000000000 
Nb   0.000000000000000   0.000000000000000   0.000000000000000 
Zr   0.250000000000000   0.250000000000000   0.125000000000000 
Zr   0.250000000000000   0.750000000000000   0.125000000000000 
Zr   0.250000000000000   0.750000000000000   0.625000000000000 
Zr   0.500000000000000   0.500000000000000   0.000000000000000 
Zr   0.750000000000000   0.250000000000000   0.125000000000000 
Zr   0.750000000000000   0.750000000000000   0.875000000000000 
Zr   0.000000000000000   0.500000000000000   0.750000000000000 
Zr   0.000000000000000   0.000000000000000   0.500000000000000 
