&CONTROL
   calculation      = 'relax'
   tstress          = .true.
   tprnfor          = .true.
   outdir           = 'outdir'
   etot_conv_thr    = 0.0001
   forc_conv_thr    = 0.001
   pseudo_dir       = 'q-e/pseudo/'
/
&SYSTEM
   ecutwfc          = 120
   occupations      = 'smearing'
   degauss          = 0.022
   smearing         = 'gaussian'
   ntyp             = 4
   nat              = 32
   ibrav            = 0
/
&ELECTRONS
   conv_thr         = 1e-06
/
&IONS
/
&CELL
/

ATOMIC_SPECIES
Hf 178.49 hf_pbe_v1.uspp.F.UPF
Nb 92.90637 nb_pbe_v1.uspp.F.UPF
Ta 180.94788 ta_pbe_v1.uspp.F.UPF
Zr 91.224 zr_pbe_v1.uspp.F.UPF

K_POINTS automatic
1 1 1  0 0 0

CELL_PARAMETERS angstrom
3.34000000000000 0.00000000000000 0.00000000000000
0.00000000000000 3.34000000000000 0.00000000000000
0.00000000000000 0.00000000000000 3.34000000000000

ATOMIC_POSITIONS angstrom
Hf 0.0000000000 0.0000000000 0.0000000000 
Hf 1.6700000000 1.6700000000 1.6700000000 
Nb 0.9959037709 0.0406908449 0.6771490674 
Nb -0.4933498514 1.4448907287 2.7209314274 
Ta 1.7548139436 1.2497382573 -1.8794086165 
Ta 0.9509853406 -0.5446221949 0.2421073850 
Zr 1.3969076898 -0.2506441835 -0.0432200341 
Zr 0.2350144276 1.8455103504 1.5762984799 
Hf -0.1047430747 -1.5994521278 0.6123321388 
Hf 0.3067163220 1.2563609449 0.8166183572 
Nb 0.4918979526 -0.6514841851 0.1680493578 
Nb 1.0472514428 0.2206702565 2.8694617904 
Ta -2.1678364566 -0.5253415040 -1.0499934916 
Ta 0.5172496126 -1.2479444671 -0.2532138742 
Zr 0.1564958925 -0.9054456563 -0.5985149992 
Zr -0.0171803665 0.4298312932 1.9614795370 
Hf 1.9427704177 0.3639310858 0.2254691333 
Hf -0.3673704589 1.4538152425 1.5827095893 
Hf 0.1192641862 1.1141497990 2.0570759597 
Hf 1.4740075438 0.4232521493 -0.4034180705 
Nb 0.1820895317 -0.5106820921 1.1258282937 
Nb 1.2530164036 2.1322671173 0.6414368078 
Nb 0.7277855281 -0.1000011167 -0.3196186751 
Nb 0.8646053825 1.7188612339 1.9253134122 
Ta -0.2794475495 1.0860266589 -0.8495630210 
Ta 1.7069712595 0.6567162464 1.2087209451 
Ta 1.8362013974 0.0339119537 -0.6490569655 
Ta 0.7362264142 1.3202834321 1.6965780137 
Zr 0.9184447415 2.3490349156 -0.2273416586 
Zr 0.8844640178 0.3413409655 1.8546550545 
Zr 1.3058551785 0.8673977942 -0.3573232295 
Zr 0.5276578532 1.2064974332 2.4078386749 

