&CONTROL
   calculation      = 'vc-relax'
   tstress          = .true.
   tprnfor          = .true.
   outdir           = 'outdir'
   etot_conv_thr    = 0.0001
   forc_conv_thr    = 0.001
   pseudo_dir       = 'q-e/pseudo/'
/
&SYSTEM
   ecutwfc          = 30
   occupations      = 'smearing'
   degauss          = 0.01
   smearing         = 'gaussian'
   ntyp             = 4
   nat              = 16
   ibrav            = 0
/
&ELECTRONS
   conv_thr         = 1e-06
/
&IONS
/
&CELL
/

ATOMIC_SPECIES
Hf 178.49 hf_pbe_v1.uspp.F.UPF
Nb 92.90637 nb_pbe_v1.uspp.F.UPF
Ta 180.94788 ta_pbe_v1.uspp.F.UPF
Zr 91.224 zr_pbe_v1.uspp.F.UPF

K_POINTS automatic
1 1 1  0 0 0

CELL_PARAMETERS angstrom
0.00000000000000 40.00000000000000 0.00000000000000
40.00000000000000 0.00000000000000 0.00000000000000
0.00000000000000 0.00000000000000 20.00000000000000

ATOMIC_POSITIONS angstrom
Hf 10.0000000000 0.0000000000 0.0000000000 
Nb 0.0000000000 10.0000000000 0.0000000000 
Ta 10.0000000000 10.0000000000 0.0000000000 
Zr 0.0000000000 0.0000000000 0.0000000000 
Hf 30.0000000000 0.0000000000 0.0000000000 
Nb 20.0000000000 10.0000000000 0.0000000000 
Ta 30.0000000000 10.0000000000 0.0000000000 
Zr 20.0000000000 0.0000000000 0.0000000000 
Hf 10.0000000000 20.0000000000 0.0000000000 
Nb 0.0000000000 30.0000000000 0.0000000000 
Ta 10.0000000000 30.0000000000 0.0000000000 
Zr 0.0000000000 20.0000000000 0.0000000000 
Hf 30.0000000000 20.0000000000 0.0000000000 
Nb 20.0000000000 30.0000000000 0.0000000000 
Ta 30.0000000000 30.0000000000 0.0000000000 
Zr 20.0000000000 20.0000000000 0.0000000000 

