&CONTROL
   calculation      = 'relax'
   tstress          = .true.
   tprnfor          = .true.
   outdir           = 'outdir'
   etot_conv_thr    = 0.0001
   forc_conv_thr    = 0.001
   pseudo_dir       = 'q-e/pseudo/'
/
&SYSTEM
   ecutwfc          = 120
   ecutrho          = 960
   occupations      = 'smearing'
   degauss          = 0.022
   smearing         = 'gaussian'
   ntyp             = 4
   nat              = 16
   ibrav            = 0
/
&ELECTRONS
   conv_thr         = 1e-06
/
&IONS
/
&CELL
/

ATOMIC_SPECIES
Hf 178.49 hf_pbe_v1.uspp.F.UPF
Nb 92.90637 nb_pbe_v1.uspp.F.UPF
Ta 180.94788 ta_pbe_v1.uspp.F.UPF
Zr 91.224 zr_pbe_v1.uspp.F.UPF

K_POINTS automatic
1 1 1  0 0 0

CELL_PARAMETERS angstrom
7.34000000000000 0.00000000000000 0.00000000000000
0.00000000000000 7.34000000000000 0.00000000000000
0.00000000000000 0.00000000000000 3.67000000000000

ATOMIC_POSITIONS angstrom
Hf 1.0000000000 1.0000000000 1.0000000000 
Nb 1.0000000000 2.6700000000 2.6700000000 
Ta 2.6700000000 1.0000000000 2.6700000000 
Zr 2.6700000000 2.6700000000 1.0000000000 
Hf 1.0000000000 4.6700000000 1.0000000000 
Nb 1.0000000000 6.3400000000 2.6700000000 
Ta 2.6700000000 4.6700000000 2.6700000000 
Zr 2.6700000000 6.3400000000 1.0000000000 
Hf 4.6700000000 1.0000000000 1.0000000000 
Nb 4.6700000000 2.6700000000 2.6700000000 
Ta 6.3400000000 1.0000000000 2.6700000000 
Zr 6.3400000000 2.6700000000 1.0000000000 
Hf 4.6700000000 4.6700000000 1.0000000000 
Nb 4.6700000000 6.3400000000 2.6700000000 
Ta 6.3400000000 4.6700000000 2.6700000000 
Zr 6.3400000000 6.3400000000 1.0000000000 

