&CONTROL
   calculation      = 'relax'
   tstress          = .true.
   tprnfor          = .true.
   outdir           = 'outdir'
   etot_conv_thr    = 0.0001
   forc_conv_thr    = 0.001
   pseudo_dir       = 'q-e/pseudo/'
/
&SYSTEM
   ecutwfc          = 120
   occupations      = 'smearing'
   degauss          = 0.022
   smearing         = 'gaussian'
   ntyp             = 4
   nat              = 32
   ibrav            = 0
/
&ELECTRONS
   conv_thr         = 1e-06
/
&IONS
/
&CELL
/

ATOMIC_SPECIES
Hf 178.49 hf_pbe_v1.uspp.F.UPF
Nb 92.90637 nb_pbe_v1.uspp.F.UPF
Ta 180.94788 ta_pbe_v1.uspp.F.UPF
Zr 91.224 zr_pbe_v1.uspp.F.UPF

K_POINTS automatic
1 1 1  0 0 0

CELL_PARAMETERS angstrom
11.15560000000000 0.00000000000000 0.00000000000000
0.00000000000000 11.15560000000000 0.00000000000000
0.00000000000000 0.00000000000000 11.15560000000000

ATOMIC_POSITIONS angstrom
Hf 6.7177247967 8.2568132611 6.6795933517 
Hf 3.8568385481 8.4810076626 8.1100201692 
Hf 7.9232696857 7.0946126128 5.1600152715 
Hf 4.2611628362 3.0948918150 7.1919391104 
Hf 6.8290747282 7.4115539031 5.8179043200 
Hf 3.4352362070 5.1185634561 5.2848611836 
Hf 3.5488741860 5.4071314551 8.7141598428 
Hf 1.1920468528 4.8951259824 4.3634891545 
Nb 5.9438646518 4.7921832902 4.5874373180 
Nb 6.0595762288 5.8334488952 3.9948732508 
Nb 2.8401883486 4.6046817310 7.7010824067 
Nb 6.6007577039 4.5989416798 8.3592475110 
Nb 8.3883292190 5.3564456718 8.2898862431 
Nb 7.1924297372 8.4966331453 5.1630101001 
Nb 7.2909183457 4.5814185796 4.5804273717 
Nb 4.1556860674 2.0420460541 2.5614189016 
Ta 5.1846467649 4.5989159952 1.6353379789 
Ta 4.2653863422 6.5325109420 8.2577496243 
Ta 7.6530206904 9.1135539459 7.4143361091 
Ta 5.6115091482 4.5005695283 9.3046367059 
Ta 4.1935569254 8.1468006065 6.0517180418 
Ta 3.6007107751 5.7247738811 3.7566022603 
Ta 7.4441892492 5.7327198327 5.2686125067 
Ta 8.0817406353 6.6390100827 4.5059463976 
Zr 7.1061084668 8.4311716951 6.9764792445 
Zr 9.9635531472 5.0469550848 4.8895109854 
Zr 2.9581512274 6.5854464421 9.5202620211 
Zr 5.8639576093 3.7183957791 4.3191950910 
Zr 7.3753075741 7.1020590527 5.5909585312 
Zr 5.9960210423 4.4694926528 8.2890117768 
Zr 4.2598733133 8.4764581648 6.8397419397 
Zr 3.0847829745 7.7342390303 7.0190525554 

