&CONTROL
   calculation      = 'relax'
   tstress          = .true.
   tprnfor          = .true.
   outdir           = 'outdir'
   etot_conv_thr    = 0.0001
   forc_conv_thr    = 0.001
   pseudo_dir       = 'q-e/pseudo/'
/
&SYSTEM
   ecutwfc          = 120
   occupations      = 'smearing'
   degauss          = 0.022
   smearing         = 'gaussian'
   ntyp             = 4
   nat              = 16
   ibrav            = 0
/
&ELECTRONS
   conv_thr         = 1e-06
/
&IONS
/
&CELL
/

ATOMIC_SPECIES
Hf 178.49 hf_pbe_v1.uspp.F.UPF
Nb 92.90637 nb_pbe_v1.uspp.F.UPF
Ta 180.94788 ta_pbe_v1.uspp.F.UPF
Zr 91.224 zr_pbe_v1.uspp.F.UPF

K_POINTS automatic
1 1 1  0 0 0

CELL_PARAMETERS angstrom
3.34000000000000 0.00000000000000 0.00000000000000
0.00000000000000 3.34000000000000 0.00000000000000
0.00000000000000 0.00000000000000 3.34000000000000

ATOMIC_POSITIONS angstrom
Hf 0.0000000000 0.0000000000 0.0000000000 
Hf 1.6700000000 1.6700000000 1.6700000000 
Nb 0.6079503422 0.2540508866 -0.7562243816 
Nb 0.9760912430 0.6191801792 2.0894482764 
Ta 0.7419902921 0.0264640640 2.0893670271 
Ta 2.6460836894 1.1957489667 0.2525488133 
Zr 0.1502463588 0.9484692914 -0.3766220624 
Zr 1.4923971662 0.7427553442 2.1773969239 
Hf 2.4608033405 0.5423269716 0.2366628332 
Hf 0.1153603457 1.8516582128 1.3096254883 
Nb 2.9569106592 1.3859155533 0.4563367281 
Nb 0.3219026175 0.5405975327 1.2982809448 
Ta 0.6358177215 -0.0094999281 1.3687489950 
Ta 1.5417001717 2.6602380241 2.0157236879 
Zr 2.2879987852 1.4787507806 -0.1598988626 
Zr 0.1661977021 0.8567241328 1.7049719140 

