&CONTROL
   calculation      = 'md'
   nstep            = 1
   tstress          = .false.
   tprnfor          = .false.
   dt               = 21
   etot_conv_thr    = 0.0001
   forc_conv_thr    = 0.001
   pseudo_dir       = 'q-e/pseudo/'
/
&SYSTEM
   ecutwfc          = 120
   occupations      = 'smearing'
   degauss          = 0.022
   smearing         = 'gaussian'
   nspin            = 2
   starting_magnetization(1) = 0.0
   starting_magnetization(2) = 0.0
   starting_magnetization(3) = 0.0
   starting_magnetization(4) = 0.0
   starting_magnetization(5) = 0.0
   ntyp             = 5
   nat              = 37
   ibrav            = 0
/
&ELECTRONS
   conv_thr         = 1e-06
   mixing_mode      = 'TF'
   mixing_beta      = 0.7
/
&IONS
   ion_temperature  = 'initial'
   tempw            = 300
   ion_velocities   = 'from_input'
/
&CELL
/

ATOMIC_SPECIES
Hf  178.49 hf_pbe_v1.uspp.F.UPF
Nb  92.90637 nb_pbe_v1.uspp.F.UPF
Ta  180.94788 ta_pbe_v1.uspp.F.UPF
Zr  91.224 zr_pbe_v1.uspp.F.UPF
H  2.014 h_pbe_v1.4.uspp.F.UPF

K_POINTS automatic
1 1 1  0 0 0

CELL_PARAMETERS angstrom
11.01000014162482 0.00000000000000 0.00000000000000
0.00000000000000 11.01000014162482 0.00000000000000
0.00000000000000 0.00000000000000 13.83517400990000

ATOMIC_POSITIONS angstrom
Hf  0.9176680224 0.9177019738 6.0000056973 0 0 0
Nb  0.9173234497 2.7526248949 7.8351722256 0 0 0
Ta  2.7527284347 0.9173930264 7.8351609049 0 0 0
Zr  2.7522343302 2.7524120661 6.0002777759 0 0 0
Hf  0.9177049499 4.5876836806 6.0000020867 0 0 0
Nb  0.9173393046 6.4225621002 7.8351735676 0 0 0
Ta  2.7527381860 4.5873684005 7.8351614387 0 0 0
Zr  2.7522121020 6.4222559905 6.0002756317 0 0 0
Hf  0.9176377821 8.2576059596 6.0000044542 0 0 0
Nb  0.9173151100 10.0926521295 7.8351740099 0 0 0
Ta  2.7527055935 8.2573505107 7.8351641473 0 0 0
Zr  2.7521841910 10.0923909531 6.0002784531 0 0 0
Hf  4.5876252465 0.9177395962 6.0000006697 0 0 0
Nb  4.5873280794 2.7526229914 7.8351690979 0 0 0
Ta  6.4227987760 0.9173606716 7.8351596669 0 0 0
Zr  6.4222541303 2.7523801565 6.0002795833 0 0 0
Hf  4.5875872276 4.5876453502 6.0000000000 0 0 0
Nb  4.5873035682 6.4225798169 7.8351734122 0 0 0
Ta  6.4227676683 4.5873976647 7.8351628193 0 0 0
Zr  6.4222605519 6.4222685466 6.0002791440 0 0 0
Hf  4.5876286132 8.2576081386 6.0000020167 0 0 0
Nb  4.5873145691 10.0926342860 7.8351712092 0 0 0
Ta  6.4228155496 8.2573511420 7.8351645434 0 0 0
Zr  6.4223108640 10.0924137859 6.0002806612 0 0 0
Hf  8.2577255535 0.9176494414 6.0000030467 0 0 0
Nb  8.2573161809 2.7526189789 7.8351697865 0 0 0
Ta  10.0927512453 0.9173570606 7.8351590560 0 0 0
Zr  10.0922470453 2.7523662296 6.0002797968 0 0 0
Hf  8.2577340775 4.5877322464 6.0000017885 0 0 0
Nb  8.2573219524 6.4225786718 7.8351711568 0 0 0
Ta  10.0927773926 4.5874121293 7.8351600684 0 0 0
Zr  10.0922625090 6.4222837416 6.0002783710 0 0 0
Hf  8.2577506656 8.2576064873 6.0000005673 0 0 0
Nb  8.2573348820 10.0926400800 7.8351707487 0 0 0
Ta  10.0927535576 8.2573441870 7.8351612654 0 0 0
Zr  10.0922386382 10.0924069134 6.0002796403 0 0 0
H  5.0000000000 4.0000000000 12.8000000000

ATOMIC_VELOCITIES
Hf 0.0 0.0 0.0
Nb 0.0 0.0 0.0
Ta 0.0 0.0 0.0
Zr 0.0 0.0 0.0
Hf 0.0 0.0 0.0
Nb 0.0 0.0 0.0
Ta 0.0 0.0 0.0
Zr 0.0 0.0 0.0
Hf 0.0 0.0 0.0
Nb 0.0 0.0 0.0
Ta 0.0 0.0 0.0
Zr 0.0 0.0 0.0
Hf 0.0 0.0 0.0
Nb 0.0 0.0 0.0
Ta 0.0 0.0 0.0
Zr 0.0 0.0 0.0
Hf 0.0 0.0 0.0
Nb 0.0 0.0 0.0
Ta 0.0 0.0 0.0
Zr 0.0 0.0 0.0
Hf 0.0 0.0 0.0
Nb 0.0 0.0 0.0
Ta 0.0 0.0 0.0
Zr 0.0 0.0 0.0
Hf 0.0 0.0 0.0
Nb 0.0 0.0 0.0
Ta 0.0 0.0 0.0
Zr 0.0 0.0 0.0
Hf 0.0 0.0 0.0
Nb 0.0 0.0 0.0
Ta 0.0 0.0 0.0
Zr 0.0 0.0 0.0
Hf 0.0 0.0 0.0
Nb 0.0 0.0 0.0
Ta 0.0 0.0 0.0
Zr 0.0 0.0 0.0
H 0.0 0.0 -0.02451