&CONTROL
   calculation      = 'md'
   nstep            = 10
   tstress          = .false.
   tprnfor          = .false.
   dt               = 2
   etot_conv_thr    = 0.0001
   forc_conv_thr    = 0.001
   pseudo_dir       = 'q-e/pseudo/'
/
&SYSTEM
   ecutwfc          = 120
   occupations      = 'smearing'
   degauss          = 0.022
   smearing         = 'gaussian'
   nspin            = 2
   starting_magnetization(1) = 0.0
   starting_magnetization(2) = 0.0
   starting_magnetization(3) = 0.0
   starting_magnetization(4) = 0.0
   starting_magnetization(5) = 0.0
   ntyp             = 5
   nat              = 17
   ibrav            = 0
/
&ELECTRONS
   conv_thr         = 1e-06
   mixing_mode      = 'TF'
   mixing_beta      = 0.7
/
&IONS
   ion_temperature  = 'initial'
   tempw            = 300
/
&CELL
/

ATOMIC_SPECIES
Hf  178.49 hf_pbe_v1.uspp.F.UPF
Nb  92.90637 nb_pbe_v1.uspp.F.UPF
Ta  180.94788 ta_pbe_v1.uspp.F.UPF
Zr  91.224 zr_pbe_v1.uspp.F.UPF
H  2.014 h_pbe_v1.4.uspp.F.UPF

K_POINTS automatic
1 1 1  0 0 0

CELL_PARAMETERS angstrom
3.33999984830692 0.00000000000000 0.00000000000000
0.00000000000000 3.33999984830692 0.00000000000000
0.00000000000000 0.00000000000000 16.01749539430000

ATOMIC_POSITIONS angstrom
Hf  0.0858800679 -0.7951436715 7.4532072815 0 0 0
Hf  0.9880709739 1.9014415882 8.3624579711 0 0 0
Nb  1.0746989219 0.1356535858 6.8196389631 0 0 0
Nb  1.6491103981 0.8626804318 9.1943310858 0 0 0
Ta  0.0709744107 -0.7820475991 9.3858007313 0 0 0
Ta  1.9524714937 0.9993933557 7.6598559185 0 0 0
Zr  0.9976274959 1.7451739843 6.6557981874 0 0 0
Zr  2.5198328619 0.2094691683 10.0174953943 0 0 0
Hf  1.9380429646 -0.7197681019 7.5485206618 0 0 0
Hf  -0.6483186390 1.7040463621 8.4530515930 0 0 0
Nb  2.4216282335 1.6043757567 6.4559262597 0 0 0
Nb  0.1475903912 0.9184995235 7.5588298057 0 0 0
Ta  0.9013084356 0.1211212120 8.4106110025 0 0 0
Ta  2.6415926642 3.3452418198 8.4595496119 0 0 0
Zr  1.8442847182 2.6188909264 6.0000000000 0 0 0
Zr  0.1866550429 0.8943516698 9.3828635984 0 0 0
H  5.0000000000 4.0000000000 5.0000000000

ATOMIC_VELOCITIES
Ta 0.0 0.0 0.0
Nb 0.0 0.0 0.0
Hf 0.0 0.0 0.0
Zr 0.0 0.0 0.0
H 0.0 0.0 -0.03464
