&CONTROL
   calculation      = 'vc-relax'
   tstress          = .true.
   tprnfor          = .true.
   outdir           = 'outdir'
   etot_conv_thr    = 0.0001
   forc_conv_thr    = 0.001
   pseudo_dir       = 'q-e/pseudo/'
/
&SYSTEM
   ecutwfc          = 30
   occupations      = 'smearing'
   degauss          = 0.01
   smearing         = 'gaussian'
   ntyp             = 4
   nat              = 32
   ibrav            = 0
/
&ELECTRONS
   conv_thr         = 1e-07
/
&IONS
/
&CELL
/

ATOMIC_SPECIES
Hf 178.49 hf_pbe_v1.uspp.F.UPF
Nb 92.90637 nb_pbe_v1.uspp.F.UPF
Ta 180.94788 ta_pbe_v1.uspp.F.UPF
Zr 91.224 zr_pbe_v1.uspp.F.UPF

K_POINTS automatic
1 1 1  0 0 0

CELL_PARAMETERS angstrom
0.00000000000000 20.00000000000000 0.00000000000000
20.00000000000000 0.00000000000000 0.00000000000000
0.00000000000000 0.00000000000000 20.00000000000000

ATOMIC_POSITIONS angstrom
Hf 5.4967141530 -0.1382643012 0.6476885381 
Nb 1.5230298564 4.7658466253 -0.2341369569 
Ta 6.5792128155 5.7674347292 -0.4694743859 
Zr 0.5425600436 -0.4634176928 -0.4657297536 
Hf 5.2419622716 -1.9132802447 8.2750821675 
Nb -0.5622875292 3.9871688797 10.3142473326 
Ta 4.0919759245 3.5876962987 11.4656487689 
Zr -0.2257763005 0.0675282047 8.5752518138 
Hf 14.4556172755 0.1109225897 -1.1509935774 
Nb 10.3756980183 4.3993613101 -0.2916937498 
Ta 14.3982933878 6.8522781845 -0.0134972247 
Zr 8.9422890710 0.8225449121 -1.2208436500 
Hf 15.2088635950 -1.9596701239 8.6718139511 
Nb 10.1968612359 5.7384665800 10.1713682812 
Ta 14.8843517176 4.6988963044 8.5214780096 
Zr 9.2801557916 -0.4606387710 11.0571222262 
Hf 5.3436182896 8.2369598446 0.3240839694 
Nb -0.3850822804 14.3230779997 0.6116762888 
Ta 6.0309995225 15.9312801191 -0.8392175232 
Zr -0.3092123759 10.3312634314 0.9755451271 
Hf 4.5208257622 9.8143410233 8.8936650260 
Nb -1.1962066241 15.8125258224 11.3562400286 
Ta 4.9279898784 16.0035328979 10.3616360250 
Zr -0.6451197546 10.3613956055 11.5380365665 
Hf 14.9641739609 11.5646436558 -2.6197451041 
Nb 10.8219025044 15.0870470682 -0.2990073505 
Ta 15.0917607765 13.0124310854 -0.2196718878 
Zr 10.3571125715 11.4778940447 -0.5182702183 
Hf 14.1915063971 9.4982429564 10.9154021177 
Nb 10.3287511097 14.4702397962 10.5132674331 
Ta 15.0970775493 15.9686449905 9.2979469061 
Zr 9.6723378534 9.6078918469 8.5364850519 

