&CONTROL
   calculation      = 'relax'
   tstress          = .true.
   tprnfor          = .true.
   outdir           = 'outdir'
   etot_conv_thr    = 0.0001
   forc_conv_thr    = 0.001
   pseudo_dir       = 'q-e/pseudo/'
/
&SYSTEM
   ecutwfc          = 120
   occupations      = 'smearing'
   degauss          = 0.022
   smearing         = 'gaussian'
   ntyp             = 4
   nat              = 16
   ibrav            = 0
/
&ELECTRONS
   conv_thr         = 1e-06
/
&IONS
/
&CELL
/

ATOMIC_SPECIES
Hf 178.49 hf_pbe_v1.uspp.F.UPF
Nb 92.90637 nb_pbe_v1.uspp.F.UPF
Ta 180.94788 ta_pbe_v1.uspp.F.UPF
Zr 91.224 zr_pbe_v1.uspp.F.UPF

K_POINTS automatic
1 1 1  0 0 0

CELL_PARAMETERS angstrom
3.34000000000000 0.00000000000000 0.00000000000000
0.00000000000000 3.34000000000000 0.00000000000000
0.00000000000000 0.00000000000000 3.34000000000000

ATOMIC_POSITIONS angstrom
Hf 0.0000000000 0.0000000000 0.0000000000 
Hf 1.6700000000 1.6700000000 1.6700000000 
Nb 1.1097896865 -0.2150776269 0.3399167860 
Nb 1.1093446149 2.2482444268 1.8560778137 
Ta 0.0982326996 1.7565617701 0.1561237986 
Ta 1.4835069439 0.6837231475 2.4575869328 
Zr -0.5164046962 1.2551759354 0.6918584719 
Zr 2.2284481893 0.4014958933 1.0139035345 
Hf 0.5011504253 -0.3841476377 -0.2708252667 
Hf 1.2690620686 1.3079440929 1.9458924158 
Nb 1.3630602709 -0.5813582287 0.5112580768 
Nb 0.6727486649 1.8757043650 1.8725123871 
Ta 0.4929874349 1.3732303210 -0.0945027447 
Ta 0.7811715204 0.3155561489 2.5822444003 
Zr -0.2828067546 0.8592447516 0.1294185222 
Zr 2.0759896144 0.0518126712 1.5959904178 

