&CONTROL
   calculation      = 'md'
   nstep            = 3
   tstress          = .false.
   tprnfor          = .false.
   dt               = 21
   etot_conv_thr    = 0.0001
   forc_conv_thr    = 0.001
   pseudo_dir       = 'q-e/pseudo/'
/
&SYSTEM
   ecutwfc          = 120
   occupations      = 'smearing'
   degauss          = 0.022
   smearing         = 'gaussian'
   nspin            = 2
   starting_magnetization(1) = 0.0
   starting_magnetization(2) = 0.0
   starting_magnetization(3) = 0.0
   starting_magnetization(4) = 0.0
   starting_magnetization(5) = 0.0
   ntyp             = 5
   nat              = 33
   ibrav            = 0
/
&ELECTRONS
   conv_thr         = 1e-06
   mixing_mode      = 'TF'
   mixing_beta      = 0.7
/
&IONS
   ion_temperature  = 'initial'
   tempw            = 300
   ion_velocities   = 'from_input'
/
&CELL
/

ATOMIC_SPECIES
Hf  178.49 hf_pbe_v1.uspp.F.UPF
Nb  92.90637 nb_pbe_v1.uspp.F.UPF
Ta  180.94788 ta_pbe_v1.uspp.F.UPF
Zr  91.224 zr_pbe_v1.uspp.F.UPF
H  2.014 h_pbe_v1.4.uspp.F.UPF

K_POINTS automatic
1 1 1  0 0 0

CELL_PARAMETERS angstrom
11.15560007544005 0.00000000000000 0.00000000000000
0.00000000000000 11.15560007544005 0.00000000000000
0.00000000000000 0.00000000000000 19.90334489170000

ATOMIC_POSITIONS angstrom
Hf  6.3934366932 8.2606750853 10.9822727482 0 0 0
Hf  3.8463475768 8.4966701003 12.5541092887 0 0 0
Hf  8.3273937250 7.3414183731 9.4533143181 0 0 0
Hf  4.2616706779 3.0927961570 11.5559325942 0 0 0
Hf  6.4208637772 7.4834820499 10.2436927129 0 0 0
Hf  3.4339994518 5.1129050215 9.6642243172 0 0 0
Hf  3.5479189830 5.3710407200 13.1040253399 0 0 0
Hf  1.1914119363 4.8949281525 8.7281068281 0 0 0
Nb  5.8977243260 4.8310015607 9.0185828429 0 0 0
Nb  6.0564948959 5.9087654286 8.3101274445 0 0 0
Nb  2.8226374438 4.5880343383 12.0448637621 0 0 0
Nb  6.9178126067 4.6632939800 12.7429256466 0 0 0
Nb  8.3943010256 5.3591442366 12.6542429089 0 0 0
Nb  7.2073338484 8.5819461319 9.4687789558 0 0 0
Nb  7.3372118023 4.5223653540 8.9175364071 0 0 0
Nb  4.1558427116 2.0429398141 6.9262099762 0 0 0
Ta  5.1842247239 4.5982513208 6.0000000000 0 0 0
Ta  4.2971499594 6.5622932000 12.6052818965 0 0 0
Ta  7.8860925091 9.4791189977 11.9687022123 0 0 0
Ta  5.5526901276 4.5053458860 13.8395885561 0 0 0
Ta  4.1859346600 8.0459263283 10.1470820389 0 0 0
Ta  3.6012297838 5.7307866600 8.1061300453 0 0 0
Ta  7.4214635137 5.6570674593 9.6962571193 0 0 0
Ta  8.1786946638 6.4718045779 8.5372484907 0 0 0
Zr  7.1525478507 8.2027003348 11.3794874986 0 0 0
Zr  9.9649459021 5.0460542076 9.2546636181 0 0 0
Zr  2.9432742511 6.6026734642 13.9033448917 0 0 0
Zr  5.8473423253 3.6042784314 8.6553712814 0 0 0
Zr  7.3590924818 6.8593269658 10.1707139757 0 0 0
Zr  5.7354428067 4.3964919739 12.4667537907 0 0 0
Zr  4.3298567978 8.6038290467 11.3916221891 0 0 0
Zr  3.0261101904 7.7012165532 11.3833670877 0 0 0
H  5.0000000000 4.0000000000 0.1000000000

ATOMIC_VELOCITIES
Hf 0.0 0.0 0.0
Hf 0.0 0.0 0.0
Hf 0.0 0.0 0.0
Hf 0.0 0.0 0.0
Hf 0.0 0.0 0.0
Hf 0.0 0.0 0.0
Hf 0.0 0.0 0.0
Hf 0.0 0.0 0.0
Nb 0.0 0.0 0.0
Nb 0.0 0.0 0.0
Nb 0.0 0.0 0.0
Nb 0.0 0.0 0.0
Nb 0.0 0.0 0.0
Nb 0.0 0.0 0.0
Nb 0.0 0.0 0.0
Nb 0.0 0.0 0.0
Ta 0.0 0.0 0.0
Ta 0.0 0.0 0.0
Ta 0.0 0.0 0.0
Ta 0.0 0.0 0.0
Ta 0.0 0.0 0.0
Ta 0.0 0.0 0.0
Ta 0.0 0.0 0.0
Ta 0.0 0.0 0.0
Zr 0.0 0.0 0.0
Zr 0.0 0.0 0.0
Zr 0.0 0.0 0.0
Zr 0.0 0.0 0.0
Zr 0.0 0.0 0.0
Zr 0.0 0.0 0.0
Zr 0.0 0.0 0.0
Zr 0.0 0.0 0.0
H 0.0 0.0 0.02451