&CONTROL
   calculation      = 'md'
   nstep            = 10
   tstress          = .false.
   tprnfor          = .false.
   dt               = 10.5
   outdir           = 'outdir'
   etot_conv_thr    = 0.01
   forc_conv_thr    = 0.01
   pseudo_dir       = 'q-e/pseudo/'
/
&SYSTEM
   ecutwfc          = 120
   occupations      = 'smearing'
   degauss          = 0.022
   smearing         = 'gaussian'
   nspin            = 2
   starting_magnetization(1) = 0.0
   starting_magnetization(2) = 0.0
   starting_magnetization(3) = 0.0
   starting_magnetization(4) = 0.0
   starting_magnetization(5) = 0.0
   ntyp             = 5
   nat              = 31
   ibrav            = 0
/
&ELECTRONS
   conv_thr         = 0.001
   mixing_mode      = 'TF'
   mixing_beta      = 0.7
/
&IONS
   ion_temperature  = 'initial'
   tempw            = 300
   ion_velocities   = 'from_input'
/
&CELL
/

ATOMIC_SPECIES
Hf  178.49 hf_pbe_v1.uspp.F.UPF
Nb  92.90637 nb_pbe_v1.uspp.F.UPF
Ta  180.94788 ta_pbe_v1.uspp.F.UPF
Zr  91.224 zr_pbe_v1.uspp.F.UPF
H  2.014 h_pbe_v1.4.uspp.F.UPF

K_POINTS gamma

CELL_PARAMETERS angstrom
6.03999991400000 0.00000000000000 0.00000000000000
0.00000000000000 7.37999982800000 0.00000000000000
0.00000000000000 0.00000000000000 14.02000045800000

ATOMIC_POSITIONS angstrom
Hf  1.8699999570 1.8699999570 3.6699999770 0 0 0
Hf  0.2000000000 3.5399999140 2.0000000000 0 0 0
Hf  0.2000000000 3.5399999140 12.0200004580 0 0 0
Hf  3.5399999140 3.5399999140 2.0000000000 0 0 0
Hf  3.5399999140 3.5399999140 12.0200004580 0 0 0
Hf  0.2000000000 0.2000000000 2.0000000000 0 0 0
Hf  0.2000000000 0.2000000000 12.0200004580 0 0 0
Hf  0.2000000000 6.8799998280 2.0000000000 0 0 0
Hf  0.2000000000 6.8799998280 12.0200004580 0 0 0
Hf  3.5399999140 0.2000000000 2.0000000000 0 0 0
Hf  3.5399999140 0.2000000000 12.0200004580 0 0 0
Hf  3.5399999140 6.8799998280 2.0000000000 0 0 0
Hf  3.5399999140 6.8799998280 12.0200004580 0 0 0
Nb  1.8699999570 1.8699999570 7.0100002290 0 0 0
Nb  1.8699999570 5.2100002690 7.0100002290 0 0 0
Nb  1.8699999570 5.2100002690 10.3500007800 0 0 0
Ta  0.2000000000 3.5399999140 8.6799999070 0 0 0
Ta  3.5399999140 3.5399999140 8.6799999070 0 0 0
Ta  0.2000000000 0.2000000000 5.3399999540 0 0 0
Ta  0.2000000000 6.8799998280 5.3399999540
Ta  3.5399999140 0.2000000000 5.3399999540
Ta  3.5399999140 6.8799998280 5.3399999540
Ta  0.2000000000 0.2000000000 8.6799999070
Ta  0.2000000000 6.8799998280 8.6799999070
Ta  3.5399999140 0.2000000000 8.6799999070
Ta  3.5399999140 6.8799998280 8.6799999070
Zr  1.8699999570 1.8699999570 10.3500007800
Zr  1.8699999570 5.2100002690 3.6699999770
Zr  0.2000000000 3.5399999140 5.3399999540
Zr  3.5399999140 3.5399999140 5.3399999540
H  5.5399999140 3.5399999538 7.0100001295

ATOMIC_VELOCITIES
Hf 0.0 0.0 0.0
Hf 0.0 0.0 0.0
Hf 0.0 0.0 0.0
Hf 0.0 0.0 0.0
Hf 0.0 0.0 0.0
Hf 0.0 0.0 0.0
Hf 0.0 0.0 0.0
Hf 0.0 0.0 0.0
Hf 0.0 0.0 0.0
Hf 0.0 0.0 0.0
Hf 0.0 0.0 0.0
Hf 0.0 0.0 0.0
Hf 0.0 0.0 0.0
Nb 0.0 0.0 0.0
Nb 0.0 0.0 0.0
Nb 0.0 0.0 0.0
Ta 0.0 0.0 0.0
Ta 0.0 0.0 0.0
Ta 0.0 0.0 0.0
Ta 0.0 0.0 0.0
Ta 0.0 0.0 0.0
Ta 0.0 0.0 0.0
Ta 0.0 0.0 0.0
Ta 0.0 0.0 0.0
Ta 0.0 0.0 0.0
Ta 0.0 0.0 0.0
Zr 0.0 0.0 0.0
Zr 0.0 0.0 0.0
Zr 0.0 0.0 0.0
Zr 0.0 0.0 0.0
H -0.03466 0.0 0.0