&CONTROL
   calculation      = 'md'
   nstep            = 30
   tstress          = .true.
   tprnfor          = .true.
   dt               = 2.1
   outdir           = 'outdir'
   etot_conv_thr    = 0.01
   forc_conv_thr    = 0.01
   pseudo_dir       = 'q-e/pseudo'
/
&SYSTEM
   ecutwfc          = 120
   occupations      = 'smearing'
   degauss          = 0.022
   smearing         = 'gaussian'
   nspin            = 2
   starting_magnetization(1) = 0.0
   starting_magnetization(2) = 0.0
   starting_magnetization(3) = 0.0
   ntyp             = 3
   nat              = 39
   ibrav            = 0
/
&ELECTRONS
   conv_thr         = 0.001
   mixing_mode      = 'TF'
   mixing_beta      = 0.7
/
&IONS
   ion_temperature  = 'initial'
   tempw            = 300
   ion_velocities   = 'from_input'
/
&CELL
/

ATOMIC_SPECIES
Be  9.0121831 be_pbe_v1.4.uspp.F.UPF
W  183.84 w_pbe_v1.2.uspp.F.UPF
H  2.014 h_pbe_v1.4.uspp.F.UPF

K_POINTS gamma

CELL_PARAMETERS angstrom
17.11023545299999 0.00000000000000 0.00000000000000
0.00000000000000 9.84869845800000 0.00000000000000
0.00000000000000 0.00000000000000 13.30721569100000

ATOMIC_POSITIONS angstrom
Be  5.2220470910 3.0000000000 3.0000000000
Be  5.2220470910 3.0000000000 10.3072156910
Be  3.0000000000 6.8486984580 3.0000000000
Be  3.0000000000 6.8486984580 10.3072156910
Be  9.6661412720 3.0000000000 3.0000000000
Be  9.6661412720 3.0000000000 10.3072156910
Be  7.4440941820 6.8486984580 3.0000000000
Be  7.4440941820 6.8486984580 10.3072156910
Be  14.1102354530 3.0000000000 3.0000000000
Be  14.1102354530 3.0000000000 10.3072156910
Be  11.8881883630 6.8486984580 3.0000000000
Be  11.8881883630 6.8486984580 10.3072156910
Be  5.2220470910 3.0000000000 6.6536078450
Be  3.0000000000 6.8486984580 6.6536078450
Be  9.6661412720 3.0000000000 6.6536078450
Be  7.4440941820 6.8486984580 6.6536078450
Be  14.1102354530 3.0000000000 6.6536078450
Be  11.8881883630 6.8486984580 6.6536078450
Be  7.4440940490 5.5394941740 4.8268039230
Be  11.8881882300 5.5394941740 4.8268039230
Be  4.1338043010 6.1940962010 8.4804117680
Be  8.5778984820 6.1940962010 8.4804117680
Be  6.3102900790 6.1940962010 8.4804117680
Be  10.7543842610 6.1940962010 8.4804117680
Be  6.3558513590 3.6546021990 4.8268039230
Be  10.7999455400 3.6546021990 4.8268039230
Be  8.5323369380 3.6546021990 4.8268039230
Be  12.9764311190 3.6546021990 4.8268039230
Be  5.2220470910 4.3092043980 8.4804117680
Be  9.6661412720 4.3092043980 8.4804117680
W  5.2220470910 5.5657990480 3.4622962510
W  9.6661412720 5.5657990480 3.4622962510
W  7.4440942480 4.2828995240 7.1159042600
W  11.8881884290 4.2828995240 7.1159042600
W  7.4440942480 4.2828995240 9.8449192760
W  11.8881884290 4.2828995240 9.8449192760
W  5.2220470910 5.5657990480 6.1913116490
W  9.6661412720 5.5657990480 6.1913116490
H  7.4440941800 9.8000000000 6.1159042600

ATOMIC_VELOCITIES
Be 0.0 0.0 0.0
Be 0.0 0.0 0.0
Be 0.0 0.0 0.0
Be 0.0 0.0 0.0
Be 0.0 0.0 0.0
Be 0.0 0.0 0.0
Be 0.0 0.0 0.0
Be 0.0 0.0 0.0
Be 0.0 0.0 0.0
Be 0.0 0.0 0.0
Be 0.0 0.0 0.0
Be 0.0 0.0 0.0
Be 0.0 0.0 0.0
Be 0.0 0.0 0.0
Be 0.0 0.0 0.0
Be 0.0 0.0 0.0
Be 0.0 0.0 0.0
Be 0.0 0.0 0.0
Be 0.0 0.0 0.0
Be 0.0 0.0 0.0
Be 0.0 0.0 0.0
Be 0.0 0.0 0.0
Be 0.0 0.0 0.0
Be 0.0 0.0 0.0
Be 0.0 0.0 0.0
Be 0.0 0.0 0.0
Be 0.0 0.0 0.0
Be 0.0 0.0 0.0
Be 0.0 0.0 0.0
Be 0.0 0.0 0.0
W 0.0 0.0 0.0
W 0.0 0.0 0.0
W 0.0 0.0 0.0
W 0.0 0.0 0.0
W 0.0 0.0 0.0
W 0.0 0.0 0.0
W 0.0 0.0 0.0
W 0.0 0.0 0.0
H -0.42021 -0.00000 -0.00000