&CONTROL
   calculation      = 'md'
   nstep            = 15
   tstress          = .true.
   tprnfor          = .true.
   dt               = 2.1
   outdir           = 'outdir'
   etot_conv_thr    = 0.01
   forc_conv_thr    = 0.01
   pseudo_dir       = 'q-e/pseudo'
/
&SYSTEM
   ecutwfc          = 120
   occupations      = 'smearing'
   degauss          = 0.022
   smearing         = 'gaussian'
   nspin            = 2
   starting_magnetization(1) = 0.0
   starting_magnetization(2) = 0.0
   starting_magnetization(3) = 0.0
   ntyp             = 3
   nat              = 23
   ibrav            = 0
/
&ELECTRONS
   conv_thr         = 0.001
   mixing_mode      = 'TF'
   mixing_beta      = 0.7
/
&IONS
   ion_temperature  = 'initial'
   tempw            = 300
   ion_velocities   = 'from_input'
/
&CELL
/

ATOMIC_SPECIES
Be  9.0121831 be_pbe_v1.4.uspp.F.UPF
W  183.84 w_pbe_v1.2.uspp.F.UPF
H  2.014 h_pbe_v1.4.uspp.F.UPF

K_POINTS gamma

CELL_PARAMETERS angstrom
10.66614127200000 0.00000000000000 0.00000000000000
0.00000000000000 11.02204709100000 0.00000000000000
0.00000000000000 0.00000000000000 11.30721569100000

ATOMIC_POSITIONS angstrom
Be  4.2220470910 2.0000000000 2.0000000000
Be  4.2220470910 2.0000000000 9.3072156910
Be  2.0000000000 5.8486984580 2.0000000000
Be  2.0000000000 5.8486984580 9.3072156910
Be  8.6661412720 2.0000000000 2.0000000000
Be  8.6661412720 2.0000000000 9.3072156910
Be  6.4440941820 5.8486984580 2.0000000000
Be  6.4440941820 5.8486984580 9.3072156910
Be  4.2220470910 2.0000000000 5.6536078450
Be  2.0000000000 5.8486984580 5.6536078450
Be  8.6661412720 2.0000000000 5.6536078450
Be  6.4440941820 5.8486984580 5.6536078450
Be  6.4440940490 4.5394941740 3.8268039230
Be  3.1338043010 5.1940962010 7.4804117680
Be  5.3102900790 5.1940962010 7.4804117680
Be  5.3558513590 2.6546021990 3.8268039230
Be  7.5323369380 2.6546021990 3.8268039230
Be  4.2220470910 3.3092043980 7.4804117680
W  4.2220470910 4.5657990480 2.4622962510
W  6.4440942480 3.2828995240 6.1159042600
W  6.4440942480 3.2828995240 8.8449192760
W  4.2220470910 4.5657990480 5.1913116490
H  6.4440941820 9.0220470910 5.6536078410

ATOMIC_VELOCITIES
Be 0.0 0.0 0.0
Be 0.0 0.0 0.0
Be 0.0 0.0 0.0
Be 0.0 0.0 0.0
Be 0.0 0.0 0.0
Be 0.0 0.0 0.0
Be 0.0 0.0 0.0
Be 0.0 0.0 0.0
Be 0.0 0.0 0.0
Be 0.0 0.0 0.0
Be 0.0 0.0 0.0
Be 0.0 0.0 0.0
Be 0.0 0.0 0.0
Be 0.0 0.0 0.0
Be 0.0 0.0 0.0
Be 0.0 0.0 0.0
Be 0.0 0.0 0.0
Be 0.0 0.0 0.0
W 0.0 0.0 0.0
W 0.0 0.0 0.0
W 0.0 0.0 0.0
W 0.0 0.0 0.0
H -0.00000 -0.29713 -0.00000