&CONTROL
   calculation      = 'md'
   nstep            = 20
   tstress          = .true.
   tprnfor          = .true.
   dt               = 4.2
   outdir           = 'outdir'
   etot_conv_thr    = 0.01
   forc_conv_thr    = 0.01
   pseudo_dir       = 'q-e/pseudo'
/
&SYSTEM
   ecutwfc          = 120
   occupations      = 'smearing'
   degauss          = 0.022
   smearing         = 'gaussian'
   nspin            = 2
   starting_magnetization(1) = 0.0
   starting_magnetization(2) = 0.0
   starting_magnetization(3) = 0.0
   starting_magnetization(4) = 0.0
   starting_magnetization(5) = 0.0
   ntyp             = 5
   nat              = 23
   ibrav            = 0
/
&ELECTRONS
   conv_thr         = 0.001
   mixing_mode      = 'TF'
   mixing_beta      = 0.7
/
&IONS
   ion_temperature  = 'initial'
   tempw            = 300
   ion_velocities   = 'from_input'
/
&CELL
/

ATOMIC_SPECIES
Hf  178.49 hf_pbe_v1.uspp.F.UPF
Nb  92.90637 nb_pbe_v1.uspp.F.UPF
Ta  180.94788 ta_pbe_v1.uspp.F.UPF
Zr  91.224 zr_pbe_v1.uspp.F.UPF
H  2.014 h_pbe_v1.4.uspp.F.UPF

K_POINTS gamma

CELL_PARAMETERS angstrom
9.33999970677313 0.00000000000000 0.00000000000000
0.00000000000000 8.67999864336910 0.00000000000000
0.00000000000000 0.00000000000000 10.14975554930000

ATOMIC_POSITIONS angstrom
Hf  2.6699999570 2.8271230292 6.6039642186
Hf  1.2529906802 1.2862841814 5.0584662261
Hf  1.2554868986 7.3898042948 5.0880677674
Hf  4.0870092338 1.2862841814 5.0584662261
Hf  4.0845130154 7.3898042948 5.0880677674
Nb  2.6699999570 2.7969306055 3.5155832167
Nb  2.6699999570 5.8763786763 6.6349979432
Ta  1.2093730560 4.3409278516 5.0711258323
Ta  4.1306268580 4.3409278516 5.0711258323
Ta  1.3072526841 1.3141225894 2.0587791101
Ta  1.3027883142 1.3083911360 8.0945792024
Ta  1.3040096221 7.3758261241 2.0462371798
Ta  1.3077107984 7.3650829484 8.0860022208
Ta  4.0327472299 1.3141225894 2.0587791101
Ta  4.0372115998 1.3083911360 8.0945792024
Ta  4.0359902919 7.3758261241 2.0462371798
Ta  4.0322891156 7.3650829484 8.0860022208
Zr  2.6699999570 5.8662858434 3.5273839304
Zr  1.2438346190 4.3220779645 2.0000000000
Zr  1.2403854127 4.3541232845 8.1497555493
Zr  4.0961652950 4.3220779645 2.0000000000
Zr  4.0996145013 4.3541232845 8.1497555493
H  4.6482649482 4.3399999502 7.0040314474

ATOMIC_VELOCITIES
Hf 0.0 0.0 0.0
Hf 0.0 0.0 0.0
Hf 0.0 0.0 0.0
Hf 0.0 0.0 0.0
Hf 0.0 0.0 0.0
Nb 0.0 0.0 0.0
Nb 0.0 0.0 0.0
Ta 0.0 0.0 0.0
Ta 0.0 0.0 0.0
Ta 0.0 0.0 0.0
Ta 0.0 0.0 0.0
Ta 0.0 0.0 0.0
Ta 0.0 0.0 0.0
Ta 0.0 0.0 0.0
Ta 0.0 0.0 0.0
Ta 0.0 0.0 0.0
Ta 0.0 0.0 0.0
Zr 0.0 0.0 0.0
Zr 0.0 0.0 0.0
Zr 0.0 0.0 0.0
Zr 0.0 0.0 0.0
Zr 0.0 0.0 0.0
H -0.02432 -0.00000 -0.09076