&CONTROL
   calculation      = 'md'
   nstep            = 10
   tstress          = .false.
   tprnfor          = .false.
   dt               = 21000
   outdir           = 'outdir'
   etot_conv_thr    = 0.01
   forc_conv_thr    = 0.01
   pseudo_dir       = 'q-e/pseudo/'
/
&SYSTEM
   ecutwfc          = 120
   occupations      = 'smearing'
   degauss          = 0.022
   smearing         = 'gaussian'
   nspin            = 2
   starting_magnetization(1) = 0.0
   starting_magnetization(2) = 0.0
   starting_magnetization(3) = 0.0
   starting_magnetization(4) = 0.0
   ntyp             = 4
   nat              = 22
   ibrav            = 0
/
&ELECTRONS
   conv_thr         = 0.001
   mixing_mode      = 'TF'
   mixing_beta      = 0.7
/
&IONS
   ion_temperature  = 'initial'
   tempw            = 300
   ion_velocities   = 'from_input'
/
&CELL
/

ATOMIC_SPECIES
Hf  178.49 hf_pbe_v1.uspp.F.UPF
Nb  92.90637 nb_pbe_v1.uspp.F.UPF
Ta  180.94788 ta_pbe_v1.uspp.F.UPF
Zr  91.224 zr_pbe_v1.uspp.F.UPF

K_POINTS gamma

CELL_PARAMETERS angstrom
4.03999991400000 0.00000000000000 0.00000000000000
0.00000000000000 7.37999982800000 0.00000000000000
0.00000000000000 0.00000000000000 7.37999982800000

ATOMIC_POSITIONS angstrom
Hf  1.8699999570 1.8699999570 5.2100002690
Hf  0.2000000000 0.2000000000 3.5399999140
Hf  0.2000000000 6.8799998280 3.5399999140
Hf  3.5399999140 0.2000000000 3.5399999140
Hf  3.5399999140 6.8799998280 3.5399999140
Nb  1.8699999570 1.8699999570 1.8699999570
Nb  1.8699999570 5.2100002690 5.2100002690
Ta  0.2000000000 3.5399999140 3.5399999140
Ta  3.5399999140 3.5399999140 3.5399999140
Ta  0.2000000000 0.2000000000 0.2000000000
Ta  0.2000000000 0.2000000000 6.8799998280
Ta  0.2000000000 6.8799998280 0.2000000000
Ta  0.2000000000 6.8799998280 6.8799998280
Ta  3.5399999140 0.2000000000 0.2000000000
Ta  3.5399999140 0.2000000000 6.8799998280
Ta  3.5399999140 6.8799998280 0.2000000000
Ta  3.5399999140 6.8799998280 6.8799998280
Zr  1.8699999570 5.2100002690 1.8699999570
Zr  0.2000000000 3.5399999140 0.2000000000
Zr  0.2000000000 3.5399999140 6.8799998280
Zr  3.5399999140 3.5399999140 0.2000000000
Zr  3.5399999140 3.5399999140 6.8799998280

