&CONTROL
   calculation      = 'relax'
   tstress          = .false.
   tprnfor          = .false.
   outdir           = 'outdir'
   etot_conv_thr    = 0.001
   forc_conv_thr    = 0.01
   pseudo_dir       = 'q-e/pseudo/'
/
&SYSTEM
   ecutwfc          = 120
   ecutrho          = 960
   occupations      = 'smearing'
   degauss          = 0.022
   smearing         = 'gaussian'
   ntyp             = 4
   nat              = 22
   ibrav            = 0
/
&ELECTRONS
   conv_thr         = 1e-06
/
&IONS
/
&CELL
/

ATOMIC_SPECIES
Hf 178.49 hf_pbe_v1.uspp.F.UPF
Nb 92.90637 nb_pbe_v1.uspp.F.UPF
Ta 180.94788 ta_pbe_v1.uspp.F.UPF
Zr 91.224 zr_pbe_v1.uspp.F.UPF

K_POINTS gamma

CELL_PARAMETERS angstrom
5.33999991400000 0.00000000000000 0.00000000000000
0.00000000000000 8.67999982800000 0.00000000000000
0.00000000000000 0.00000000000000 8.67999982800000

ATOMIC_POSITIONS angstrom
Hf 2.6699999570 2.6699999570 6.0100002690 
Hf 1.0000000000 1.0000000000 4.3399999140 
Hf 1.0000000000 7.6799998280 4.3399999140 
Hf 4.3399999140 1.0000000000 4.3399999140 
Hf 4.3399999140 7.6799998280 4.3399999140 
Nb 2.6699999570 2.6699999570 2.6699999570 
Nb 2.6699999570 6.0100002690 6.0100002690 
Ta 1.0000000000 4.3399999140 4.3399999140 
Ta 4.3399999140 4.3399999140 4.3399999140 
Ta 1.0000000000 1.0000000000 1.0000000000 
Ta 1.0000000000 1.0000000000 7.6799998280 
Ta 1.0000000000 7.6799998280 1.0000000000 
Ta 1.0000000000 7.6799998280 7.6799998280 
Ta 4.3399999140 1.0000000000 1.0000000000 
Ta 4.3399999140 1.0000000000 7.6799998280 
Ta 4.3399999140 7.6799998280 1.0000000000 
Ta 4.3399999140 7.6799998280 7.6799998280 
Zr 2.6699999570 6.0100002690 2.6699999570 
Zr 1.0000000000 4.3399999140 1.0000000000 
Zr 1.0000000000 4.3399999140 7.6799998280 
Zr 4.3399999140 4.3399999140 1.0000000000 
Zr 4.3399999140 4.3399999140 7.6799998280 

