&CONTROL
   calculation      = 'relax'
   tstress          = .false.
   tprnfor          = .false.
   outdir           = 'outdir'
   etot_conv_thr    = 0.001
   forc_conv_thr    = 0.01
   pseudo_dir       = 'q-e/pseudo/'
/
&SYSTEM
   ecutwfc          = 120
   ecutrho          = 960
   occupations      = 'smearing'
   degauss          = 0.022
   smearing         = 'gaussian'
   ntyp             = 4
   nat              = 35
   ibrav            = 0
/
&ELECTRONS
   conv_thr         = 1e-06
/
&IONS
/
&CELL
/

ATOMIC_SPECIES
Hf 178.49 hf_pbe_v1.uspp.F.UPF
Ta 180.94788 ta_pbe_v1.uspp.F.UPF
Nb 92.90637 nb_pbe_v1.uspp.F.UPF
Zr 91.224 zr_pbe_v1.uspp.F.UPF

K_POINTS gamma

CELL_PARAMETERS angstrom
7.37999982800000 0.00000000000000 0.00000000000000
0.00000000000000 7.37999982800000 0.00000000000000
0.00000000000000 0.00000000000000 7.37999982800000

ATOMIC_POSITIONS angstrom
Hf 1.8699999570 5.2099998710 5.2099998710 
Hf 3.5399999140 0.2000000000 3.5399999140 
Hf 3.5399999140 6.8799998280 3.5399999140 
Hf 0.2000000000 3.5399999140 0.2000000000 
Hf 6.8799998280 3.5399999140 0.2000000000 
Ta 3.5399999140 0.2000000000 0.2000000000 
Ta 3.5399999140 6.8799998280 0.2000000000 
Ta 5.2099998710 1.8699999570 5.2099998710 
Ta 5.2099998710 5.2099998710 1.8699999570 
Ta 0.2000000000 3.5399999140 6.8799998280 
Ta 6.8799998280 3.5399999140 6.8799998280 
Nb 1.8699999570 1.8699999570 5.2099998710 
Nb 3.5399999140 3.5399999140 3.5399999140 
Nb 3.5399999140 3.5399999140 6.8799998280 
Nb 3.5399999140 0.2000000000 6.8799998280 
Nb 3.5399999140 6.8799998280 6.8799998280 
Nb 5.2099998710 5.2099998710 5.2099998710 
Nb 0.2000000000 3.5399999140 3.5399999140 
Nb 6.8799998280 3.5399999140 3.5399999140 
Nb 0.2000000000 0.2000000000 3.5399999140 
Nb 0.2000000000 6.8799998280 3.5399999140 
Nb 6.8799998280 0.2000000000 3.5399999140 
Nb 6.8799998280 6.8799998280 3.5399999140 
Nb 0.2000000000 0.2000000000 0.2000000000 
Nb 0.2000000000 6.8799998280 0.2000000000 
Nb 6.8799998280 0.2000000000 0.2000000000 
Nb 6.8799998280 6.8799998280 0.2000000000 
Zr 1.8699999570 1.8699999570 1.8699999570 
Zr 1.8699999570 5.2099998710 1.8699999570 
Zr 3.5399999140 3.5399999140 0.2000000000 
Zr 5.2099998710 1.8699999570 1.8699999570 
Zr 0.2000000000 0.2000000000 6.8799998280 
Zr 0.2000000000 6.8799998280 6.8799998280 
Zr 6.8799998280 0.2000000000 6.8799998280 
Zr 6.8799998280 6.8799998280 6.8799998280 

