&CONTROL
   calculation      = 'md'
   nstep            = 5
   tstress          = .false.
   tprnfor          = .false.
   dt               = 20671
   etot_conv_thr    = 1e-05
   forc_conv_thr    = 0.0001
   pseudo_dir       = 'q-e/pseudo/'
/
&SYSTEM
   ecutwfc          = 30
   occupations      = 'smearing'
   degauss          = 0.01
   smearing         = 'gaussian'
   ntyp             = 2
   nat              = 19
   ibrav            = 0
/
&ELECTRONS
   conv_thr         = 1e-06
/
&IONS
/
&CELL
/

ATOMIC_SPECIES
Ta 180.94788 ta_pbe_v1.uspp.F.UPF
H 2.014 h_pbe_v1.4.uspp.F.UPF

K_POINTS automatic
1 1 1  0 0 0

CELL_PARAMETERS angstrom
9.91740002187914 0.00000000000000 0.00000000000000
4.95870001093957 7.01266297727089 0.00000000000000
0.00000000000000 0.00000000000000 22.33755300343696

ATOMIC_POSITIONS angstrom
Ta 0.0000000000 2.3375539952 10.0000000000 
Ta 3.3057996767 2.3375539952 10.0000000000 
Ta 6.6116003452 2.3375539952 10.0000000000 
Ta 1.6529003342 4.6751069986 10.0000000000 
Ta 4.9587000109 4.6751069986 10.0000000000 
Ta 8.2644996877 4.6751069986 10.0000000000 
Ta 3.3057996767 7.0126609938 10.0000000000 
Ta 6.6116003452 7.0126609938 10.0000000000 
Ta 9.9174000219 7.0126609938 10.0000000000 
Ta 0.0000000000 0.0000000000 12.3375530034 
Ta 3.3057996767 0.0000000000 12.3375530034 
Ta 6.6116003452 0.0000000000 12.3375530034 
Ta 1.6529003342 2.3375539952 12.3375530034 
Ta 4.9587000109 2.3375539952 12.3375530034 
Ta 8.2644996877 2.3375539952 12.3375530034 
Ta 3.3057996767 4.6751069986 12.3375530034 
Ta 6.6116003452 4.6751069986 12.3375530034 
Ta 9.9174000219 4.6751069986 12.3375530034 
H 5.0000000000 4.0000000000 5.0000000000 

