
&control
    calculation = 'md'
    restart_mode='from_scratch'
    prefix = 'h'
    pseudo_dir = 'q-e/pseudo'
    dt=20,
    nstep=2,
/
&system
    ibrav=1, celldm(1) =15, nat=3, ntyp=2,
    ecutwfc=25, nosym=.true.
/
&electrons
    conv_thr=1e-8
/
&ions
    pot_extrapolation='second-order'
    wfc_extrapolation='second-order'
    ion_temperature='initial'
    tempw=300
/
ATOMIC_SPECIES
 H  1.00784  h_pbe_v1.4.uspp.F.UPF
    