&CONTROL
   calculation      = 'md'
   nstep            = 5
   tstress          = .false.
   tprnfor          = .false.
   dt               = 2.1
   etot_conv_thr    = 0.01
   forc_conv_thr    = 0.01
   pseudo_dir       = 'q-e/pseudo/'
/
&SYSTEM
   ecutwfc          = 120
   occupations      = 'smearing'
   degauss          = 0.022
   smearing         = 'gaussian'
   nspin            = 2
   starting_magnetization(1) = 0.0
   starting_magnetization(2) = 0.0
   starting_magnetization(3) = 0.0
   starting_magnetization(4) = 0.0
   starting_magnetization(5) = 0.0
   ntyp             = 5
   nat              = 17
   ibrav            = 0
/
&ELECTRONS
   conv_thr         = 0.0001
   mixing_mode      = 'TF'
   mixing_beta      = 0.7
/
&IONS
   ion_temperature  = 'initial'
   tempw            = 300
   ion_velocities   = 'from_input'
/
&CELL
/

ATOMIC_SPECIES
Hf  178.49 hf_pbe_v1.uspp.F.UPF
Nb  92.90637 nb_pbe_v1.uspp.F.UPF
Ta  180.94788 ta_pbe_v1.uspp.F.UPF
Zr  91.224 zr_pbe_v1.uspp.F.UPF
H  2.014 h_pbe_v1.4.uspp.F.UPF

K_POINTS gamma

CELL_PARAMETERS angstrom
7.34000009441655 0.00000000000000 0.00000000000000
0.00000000000000 7.34000009441655 0.00000000000000
0.00000000000000 0.00000000000000 13.91773121440000

ATOMIC_POSITIONS angstrom
Hf  0.9173507110 0.9173135972 6.0002837354 0 0 0
Nb  0.9176900085 2.7523320100 7.7799550803 0 0 0
Ta  2.7538208285 0.9176860149 7.9177084703 0 0 0
Zr  2.7522059512 2.7526418480 6.0659757673 0 0 0
Hf  0.9173105916 4.5873364617 6.0002711019 0 0 0
Nb  0.9176950052 6.4223291151 7.7797918918 0 0 0
Ta  2.7538243094 4.5876680102 7.9176812404 0 0 0
Zr  2.7522395759 6.4227147098 6.0658425039 0 0 0
Hf  4.5873495791 0.9172816749 6.0000109568 0 0 0
Nb  4.5876207816 2.7523359852 7.7804388155 0 0 0
Ta  6.4210161579 0.9176597836 7.9177312144 0 0 0
Zr  6.4229515852 2.7526427058 6.0658048318 0 0 0
Hf  4.5873841500 4.5873764414 6.0000000000 0 0 0
Nb  4.5876157176 6.4223321265 7.7803118750 0 0 0
Ta  6.4210034632 4.5876595310 7.9177105287 0 0 0
Zr  6.4229215841 6.4226899848 6.0656737289 0 0 0
H  5.0000000000 4.0000000000 12.8000000000

ATOMIC_VELOCITIES
Hf 0.0 0.0 0.0
Nb 0.0 0.0 0.0
Ta 0.0 0.0 0.0
Zr 0.0 0.0 0.0
Hf 0.0 0.0 0.0
Nb 0.0 0.0 0.0
Ta 0.0 0.0 0.0
Zr 0.0 0.0 0.0
Hf 0.0 0.0 0.0
Nb 0.0 0.0 0.0
Ta 0.0 0.0 0.0
Zr 0.0 0.0 0.0
Hf 0.0 0.0 0.0
Nb 0.0 0.0 0.0
Ta 0.0 0.0 0.0
Zr 0.0 0.0 0.0
H 0.0 0.0 -0.02451