&CONTROL
   calculation      = 'md'
   nstep            = 3
   tstress          = .false.
   tprnfor          = .false.
   dt               = 100
   outdir           = 'outdir'
   etot_conv_thr    = 1e-05
   forc_conv_thr    = 0.0001
   pseudo_dir       = 'q-e/pseudo/'
/
&SYSTEM
   ecutwfc          = 30
   occupations      = 'smearing'
   degauss          = 0.01
   smearing         = 'gaussian'
   ntyp             = 2
   nat              = 10
   ibrav            = 0
/
&ELECTRONS
/
&IONS
   ion_temperature  = 'initial'
   tempw            = 300
   ion_velocities   = 'from_input'
/
&CELL
/

ATOMIC_SPECIES
Ta 180.94788 ta_pbe_v1.uspp.F.UPF
H 2.014 h_pbe_v1.4.uspp.F.UPF

K_POINTS automatic
1 1 1  0 0 0

CELL_PARAMETERS angstrom
9.91740002187914 0.00000000000000 0.00000000000000
4.95870001093957 7.01266297727089 0.00000000000000
0.00000000000000 0.00000000000000 20.00000000000000

ATOMIC_POSITIONS angstrom
Ta 0.0000000000 0.0000000000 10.0000000000  0 0 0
Ta 3.3057996767 0.0000000000 10.0000000000  0 0 0
Ta 6.6116003452 0.0000000000 10.0000000000  0 0 0
Ta 1.6529003342 2.3375539952 10.0000000000  0 0 0
Ta 4.9587000109 2.3375539952 10.0000000000  0 0 0
Ta 8.2644996877 2.3375539952 10.0000000000  0 0 0
Ta 3.3057996767 4.6751069986 10.0000000000  0 0 0
Ta 6.6116003452 4.6751069986 10.0000000000  0 0 0
Ta 9.9174000219 4.6751069986 10.0000000000  0 0 0
H 5.0000000000 4.0000000000 15.0000000000 

ATOMIC_VELOCITIES
Ta 0.0 0.0 0.0
Ta 0.0 0.0 0.0
Ta 0.0 0.0 0.0
Ta 0.0 0.0 0.0
Ta 0.0 0.0 0.0
Ta 0.0 0.0 0.0
Ta 0.0 0.0 0.0
Ta 0.0 0.0 0.0
Ta 0.0 0.0 0.0
H 0.0 0.0 0.03464
