&CONTROL
  calculation = 'relax'
  etot_conv_thr =   3.2000000000d-04
  forc_conv_thr =   1.0000000000d-04
  outdir = './outdir/'
  pseudo_dir = 'q-e/pseudo/'
  tprnfor = .false.
  tstress = .false.
  verbosity = 'high'
/
&SYSTEM
  degauss =   1.4699723600d-02
  ecutrho =   3.6000000000d+02
  ecutwfc =   5.0000000000d+01
  ibrav = 0
  nat = 32
  nosym = .false.
  ntyp = 4
  occupations = 'smearing'
  smearing = 'cold'
/
&ELECTRONS
  conv_thr =   6.4000000000d-09
  electron_maxstep = 80
  mixing_beta =   4.0000000000d-01
/
&IONS
/
ATOMIC_SPECIES
Hf 178.49 hf_pbe_v1.uspp.F.UPF
Ta 180.94788 ta_pbe_v1.uspp.F.UPF
Nb 92.90637 nb_pbe_v1.uspp.F.UPF
Zr 91.224 zr_pbe_v1.uspp.F.UPF
ATOMIC_POSITIONS crystal
Hf           0.2500000000       0.7500000000       0.3750000000 
Hf           0.2500000000       0.7500000000       0.8750000000 
Hf           0.5000000000       0.5000000000       0.7500000000 
Hf           0.5000000000       0.0000000000       0.2500000000 
Hf           0.5000000000       0.0000000000       0.7500000000 
Hf           0.7500000000       0.7500000000       0.6250000000 
Hf           0.0000000000       0.5000000000       0.0000000000 
Hf           0.0000000000       0.0000000000       0.7500000000 
Ta           0.2500000000       0.2500000000       0.6250000000 
Ta           0.2500000000       0.2500000000       0.8750000000 
Ta           0.5000000000       0.0000000000       0.0000000000 
Ta           0.7500000000       0.2500000000       0.3750000000 
Ta           0.7500000000       0.2500000000       0.6250000000 
Ta           0.7500000000       0.2500000000       0.8750000000 
Ta           0.7500000000       0.7500000000       0.1250000000 
Ta           0.0000000000       0.5000000000       0.5000000000 
Nb           0.2500000000       0.2500000000       0.3750000000 
Nb           0.5000000000       0.5000000000       0.2500000000 
Nb           0.5000000000       0.5000000000       0.5000000000 
Nb           0.5000000000       0.0000000000       0.5000000000 
Nb           0.7500000000       0.7500000000       0.3750000000 
Nb           0.0000000000       0.5000000000       0.2500000000 
Nb           0.0000000000       0.0000000000       0.2500000000 
Nb           0.0000000000       0.0000000000       0.0000000000 
Zr           0.2500000000       0.2500000000       0.1250000000 
Zr           0.2500000000       0.7500000000       0.1250000000 
Zr           0.2500000000       0.7500000000       0.6250000000 
Zr           0.5000000000       0.5000000000       0.0000000000 
Zr           0.7500000000       0.2500000000       0.1250000000 
Zr           0.7500000000       0.7500000000       0.8750000000 
Zr           0.0000000000       0.5000000000       0.7500000000 
Zr           0.0000000000       0.0000000000       0.5000000000 
K_POINTS automatic
5 5 3 0 0 0
CELL_PARAMETERS angstrom
      6.6800000000       0.0000000000       0.0000000000
      0.0000000000       6.6800000000       0.0000000000
      0.0000000000       0.0000000000      13.3600000000

